 SystemName         paraB
 SystemLabel        paraB
 NumberOfAtoms      154
 NumberOfSpecies    5
 %block ChemicalSpeciesLabel       
  1    -6     Cg                     
  2    -1     Hg
  3    -8     Og
  4    -16    Sg
  5     79    Au
 %endblock ChemicalSpeciesLabel    
 %block PAO.BasisSizes             
  Cg     DZP                         
  Hg     DZP                         
  Og     DZP 
  Sg     DZP
  Au     DZ
 %endblock PAO.BasisSizes          
 LatticeConstant             1 Ang
 %block LatticeVectors             
  30.00     0.00     0.00          
   0.00    40.00     0.00          
   0.00     0.00    90.00          
 %endblock LatticeVectors          
 AtomicCoordinatesFormat       Ang
 PAO.BasisType split                 
 PAO.EnergyShift         0.015 Ry
 %block AtomicCoordinatesAndAtomicSpecies
   3.2440000000       -5.9680000000      -25.5480000000		  5
   3.2440000000       -3.0830000000      -25.5480000000       5
   3.2440000000       -0.1980000000      -25.5480000000       5
   3.2440000000        2.6870000000      -25.5480000000       5
   0.7460000000       -4.5260000000      -25.5480000000       5
   0.7460000000       -1.6410000000      -25.5480000000       5
   0.7460000000        1.2440000000      -25.5480000000       5
   0.7460000000        4.1290000000      -25.5480000000       5
  -1.7530000000       -5.9680000000      -25.5480000000       5
  -1.7530000000       -3.0830000000      -25.5480000000       5
  -1.7530000000       -0.1980000000      -25.5480000000       5
  -1.7530000000        2.6870000000      -25.5480000000       5
   3.2440000000       -5.9680000000      -22.9480000000       5
   3.2440000000       -3.0830000000      -22.9480000000       5
   3.2440000000       -0.1980000000      -22.9480000000       5
   3.2440000000        2.6870000000      -22.9480000000       5
   0.7460000000       -4.5260000000      -22.9480000000       5
   0.7460000000       -1.6410000000      -22.9480000000       5
   0.7460000000        1.2440000000      -22.9480000000       5
   0.7460000000        4.1290000000      -22.9480000000       5
  -1.7530000000       -5.9680000000      -22.9480000000       5
  -1.7530000000       -3.0830000000      -22.9480000000       5
  -1.7530000000       -0.1980000000      -22.9480000000       5
  -1.7530000000        2.6870000000      -22.9480000000       5
   3.2440000000       -5.9680000000      -20.3480000000       5
   3.2440000000       -3.0830000000      -20.3480000000       5
   3.2440000000       -0.1980000000      -20.3480000000       5
   3.2440000000        2.6870000000      -20.3480000000       5
   0.7460000000       -4.5260000000      -20.3480000000       5
   0.7460000000       -1.6410000000      -20.3480000000       5
   0.7460000000        1.2440000000      -20.3480000000       5
   0.7460000000        4.1290000000      -20.3480000000       5
  -1.7530000000       -5.9680000000      -20.3480000000       5
  -1.7530000000       -3.0830000000      -20.3480000000       5
  -1.7530000000       -0.1980000000      -20.3480000000       5
  -1.7530000000        2.6870000000      -20.3480000000       5
   3.2440000000       -5.9680000000      -17.7480000000       5
   3.2440000000       -3.0830000000      -17.7480000000       5
   3.2440000000       -0.1980000000      -17.7480000000       5
   3.2440000000        2.6870000000      -17.7480000000       5
   0.7460000000       -4.5260000000      -17.7480000000       5
   0.7460000000       -1.6410000000      -17.7480000000       5
   0.7460000000        1.2440000000      -17.7480000000       5
   0.7460000000        4.1290000000      -17.7480000000       5
  -1.7530000000       -5.9680000000      -17.7480000000       5
  -1.7530000000       -3.0830000000      -17.7480000000       5
  -1.7530000000       -0.1980000000      -17.7480000000       5
  -1.7530000000        2.6870000000      -17.7480000000       5
   3.2440000000       -5.9680000000      -15.1480000000       5
   3.2440000000       -3.0830000000      -15.1480000000       5
   3.2440000000       -0.1980000000      -15.1480000000       5
   3.2440000000        2.6870000000      -15.1480000000       5
   0.7460000000       -4.5260000000      -15.1480000000       5
   0.7460000000       -1.6410000000      -15.1480000000       5
   0.7460000000        1.2440000000      -15.1480000000       5
   0.7460000000        4.1290000000      -15.1480000000       5
  -1.7530000000       -5.9680000000      -15.1480000000       5
  -1.7530000000       -3.0830000000      -15.1480000000       5
  -1.7530000000       -0.1980000000      -15.1480000000       5
  -1.7530000000        2.6870000000      -15.1480000000       5
   3.2440000000       -5.9680000000      -12.5480000000       5
   3.2440000000       -3.0830000000      -12.5480000000       5
   3.2440000000       -0.1980000000      -12.5480000000       5
   3.2440000000        2.6870000000      -12.5480000000       5
   0.7460000000       -4.5260000000      -12.5480000000       5
   0.7460000000       -1.6410000000      -12.5480000000       5
   0.7460000000        1.2440000000      -12.5480000000       5
   0.7460000000        4.1290000000      -12.5480000000       5
  -1.7530000000       -5.9680000000      -12.5480000000       5
  -1.7530000000       -3.0830000000      -12.5480000000       5
  -1.7530000000       -0.1980000000      -12.5480000000       5
  -1.7530000000        2.6870000000      -12.5480000000       5
   3.2440000000       -5.9680000000       -9.9480000000       5
   3.2440000000       -3.0830000000       -9.9480000000       5
   3.2440000000       -0.1980000000       -9.9480000000       5
   3.2440000000        2.6870000000       -9.9480000000       5
   0.7460000000       -4.5260000000       -9.9480000000       5
   0.7460000000       -1.6410000000       -9.9480000000       5
   0.7460000000        1.2440000000       -9.9480000000       5
   0.7460000000        4.1290000000       -9.9480000000       5
  -1.7530000000       -5.9680000000       -9.9480000000       5
  -1.7530000000       -3.0830000000       -9.9480000000       5
  -1.7530000000       -0.1980000000       -9.9480000000       5
  -1.7530000000        2.6870000000       -9.9480000000       5
   1.5780000000       -0.1980000000       -7.5980000000       5
  -0.9270000000        1.2620000000       -7.6030000000       5
  -0.9310000000       -1.6500000000       -7.6030000000       5
  -0.0880000000       -0.1950000000       -5.2420000000       5
  -0.0880000000       -0.9950000000       -2.8420000000       4
   0.0744000000        1.8936400000       -2.0862400000       2
  -0.0459900000       -0.1413700000       -1.2967600000       1
   0.0339200000        1.2666200000       -1.1801000000       1
  -0.1587000000       -2.0293100000       -0.2063500000       2
  -0.0958200000       -0.9314600000       -0.1215700000       1
   0.0609400000        1.8673300000        0.0812100000       1
   0.1218200000        2.9637700000        0.1711700000       2
  -0.0680400000       -0.3300700000        1.1398000000       1
   0.0099500000        1.0838400000        1.2672900000       1
  -0.1090400000       -0.9501600000        2.0494900000       2
   0.0320600000        1.7239300000        2.5400100000       1
   0.0473000000        2.3267600000        3.6187100000       1
   0.0488300000        4.9909400000        3.7356100000       2
   0.0518700000        3.0958100000        4.8169600000       1
   0.0462400000        4.5229000000        4.7329000000       1
   0.0263900000        5.3099300000        5.8825600000       1
   0.0113300000        6.4092600000        5.8148900000       2
   0.0501700000        2.4930700000        6.0997800000       1
   0.0466600000        1.3981400000        6.2396600000       2
   0.0450800000        3.2833100000        7.2580500000       1
   0.0289000000        4.7047900000        7.1679200000       1
  -0.0607000000        6.8494800000        8.1239800000       3
  -0.0095900000        5.5126900000        8.3795600000       1
   0.0217600000        2.6055300000        8.5859000000       1
   0.0077000000        1.3710700000        8.6756600000       3
  -0.9355100000        7.6853300000        8.8065500000       1
   0.5168600000        9.2795900000        8.7201200000       2
  -2.5415800000        6.2277100000        8.9801900000       2
  -0.5115100000        9.0100700000        9.0049600000       1
  -2.2284100000        7.2678000000        9.1649300000       1
   0.0466800000        4.9438200000        9.6611500000       1
   0.0283000000        3.4936900000        9.7841700000       1
  -1.3986700000        9.9309600000        9.5787200000       1
  -3.1023200000        8.2007700000        9.7487100000       1
  -1.0709100000       10.9705000000        9.7420900000       2
  -4.1194900000        7.8841800000       10.0319800000       2
  -2.6945900000        9.5301500000        9.9569700000       1
  -3.3877600000       10.2557800000       10.4113900000       2
   0.0104200000        1.7678300000       11.0194500000       2
   0.0327500000        2.8733700000       11.0231600000       1
   0.2210300000        5.7676700000       10.8884400000       1
   0.4437100000        6.9891100000       10.8623800000       3
   0.0615200000        3.6178500000       12.2498100000       1
   0.1513700000        5.0447200000       12.1937400000       1
   0.2721900000        6.9008000000       13.2707400000       2
  -0.0430700000        1.8900400000       13.5843100000       2
   0.0175200000        2.9898500000       13.5272200000       1
   0.1902100000        5.8049300000       13.3721800000       1
   0.0453700000        3.7474400000       14.6949500000       1
   0.1281500000        5.1744600000       14.6399000000       1
   0.0040400000        3.2606500000       15.6823600000       2
   0.1446500000        5.9279500000       15.8480000000       1
   0.1463900000        6.5421000000       16.9204900000       1
   0.1516400000        9.2246500000       17.2972400000       2
   0.1471800000        8.6461500000       18.2350100000       1
   0.1448000000        7.2257500000       18.1703900000       1
   0.1436000000       10.4110900000       19.4937100000       2
   0.1427000000        9.3086600000       19.4665100000       1
   0.1383900000        6.4947700000       19.3908200000       1
   0.1368000000        5.3936400000       19.3540500000       2
   0.1369700000        8.5719000000       20.6747800000       1
   0.1349600000        7.1560800000       20.6211800000       1
   0.1306200000        6.5758200000       21.5590200000       2
   0.1318900000        9.3145400000       22.2779300000       4
   0.1350800000       10.6233600000       21.8561800000       2
 %endblock AtomicCoordinatesAndAtomicSpecies
 %block kgrid_Monkhorst_Pack
  1   0   0    0.0
  0   1   0    0.0
  0   0   1    0.0
 %endblock kgrid_Monkhorst_Pack
 xc.functional                       GGA #GGA, LDA,VDW
 xc.authors                          PBE #PBE, CA, DRSLL
 MeshCutoff                      250 Ry
 MaxSCFIterations               1000
 DM.MixingWeight                0.01
 DM.NumberPulay                    8
 DM.Tolerance                  1.d-4
 SolutionMethod                      diagon
 ElectronicTemperature           300 K
 MD.TypeOfRun                        cg
 MD.NumCGsteps                     0
 MD.MaxCGDispl                   0.1 Ang
 MD.MaxForceTol                 0.01 eV/Ang
 UseSaveData                         T
 DM.UseSaveDM                        T
 MD.UseSaveXV                        T
 MD.UseSaveCG                        T
 SaveHS                              F
 WriteEigenvalues                    T
 WriteMullikenPop                    1
 WriteCoorXmol                       T
 WriteMDXmol                         T
 WriteForces                         T
 AllocReportLevel                    2
 WriteMDhistory                      F
 WriteMDhistory                      F 