 SystemName         metaB
 SystemLabel        metaB
 NumberOfAtoms      154
 NumberOfSpecies    5
 %block ChemicalSpeciesLabel       
  1    -6     Cg                     
  2    -1     Hg
  3    -8     Og
  4    -16    Sg
  5     79    Au
 %endblock ChemicalSpeciesLabel    
 %block PAO.BasisSizes             
  Cg     DZP                         
  Hg     DZP                         
  Og     DZP 
  Sg     DZP
  Au     DZ
 %endblock PAO.BasisSizes          
 LatticeConstant             1 Ang
 %block LatticeVectors             
  30.00     0.00     0.00            
   0.00    40.00     0.00            
   0.00     0.00    90.00            
 %endblock LatticeVectors          
 AtomicCoordinatesFormat       Ang
 PAO.BasisType split                 
 PAO.EnergyShift         0.015 Ry
 %block AtomicCoordinatesAndAtomicSpecies
   3.2440000000       -5.9680000000      -25.5480000000		  5
   3.2440000000       -3.0830000000      -25.5480000000       5
   3.2440000000       -0.1980000000      -25.5480000000       5
   3.2440000000        2.6870000000      -25.5480000000       5
   0.7460000000       -4.5260000000      -25.5480000000       5
   0.7460000000       -1.6410000000      -25.5480000000       5
   0.7460000000        1.2440000000      -25.5480000000       5
   0.7460000000        4.1290000000      -25.5480000000       5
  -1.7530000000       -5.9680000000      -25.5480000000       5
  -1.7530000000       -3.0830000000      -25.5480000000       5
  -1.7530000000       -0.1980000000      -25.5480000000       5
  -1.7530000000        2.6870000000      -25.5480000000       5
   3.2440000000       -5.9680000000      -22.9480000000       5
   3.2440000000       -3.0830000000      -22.9480000000       5
   3.2440000000       -0.1980000000      -22.9480000000       5
   3.2440000000        2.6870000000      -22.9480000000       5
   0.7460000000       -4.5260000000      -22.9480000000       5
   0.7460000000       -1.6410000000      -22.9480000000       5
   0.7460000000        1.2440000000      -22.9480000000       5
   0.7460000000        4.1290000000      -22.9480000000       5
  -1.7530000000       -5.9680000000      -22.9480000000       5
  -1.7530000000       -3.0830000000      -22.9480000000       5
  -1.7530000000       -0.1980000000      -22.9480000000       5
  -1.7530000000        2.6870000000      -22.9480000000       5
   3.2440000000       -5.9680000000      -20.3480000000       5
   3.2440000000       -3.0830000000      -20.3480000000       5
   3.2440000000       -0.1980000000      -20.3480000000       5
   3.2440000000        2.6870000000      -20.3480000000       5
   0.7460000000       -4.5260000000      -20.3480000000       5
   0.7460000000       -1.6410000000      -20.3480000000       5
   0.7460000000        1.2440000000      -20.3480000000       5
   0.7460000000        4.1290000000      -20.3480000000       5
  -1.7530000000       -5.9680000000      -20.3480000000       5
  -1.7530000000       -3.0830000000      -20.3480000000       5
  -1.7530000000       -0.1980000000      -20.3480000000       5
  -1.7530000000        2.6870000000      -20.3480000000       5
   3.2440000000       -5.9680000000      -17.7480000000       5
   3.2440000000       -3.0830000000      -17.7480000000       5
   3.2440000000       -0.1980000000      -17.7480000000       5
   3.2440000000        2.6870000000      -17.7480000000       5
   0.7460000000       -4.5260000000      -17.7480000000       5
   0.7460000000       -1.6410000000      -17.7480000000       5
   0.7460000000        1.2440000000      -17.7480000000       5
   0.7460000000        4.1290000000      -17.7480000000       5
  -1.7530000000       -5.9680000000      -17.7480000000       5
  -1.7530000000       -3.0830000000      -17.7480000000       5
  -1.7530000000       -0.1980000000      -17.7480000000       5
  -1.7530000000        2.6870000000      -17.7480000000       5
   3.2440000000       -5.9680000000      -15.1480000000       5
   3.2440000000       -3.0830000000      -15.1480000000       5
   3.2440000000       -0.1980000000      -15.1480000000       5
   3.2440000000        2.6870000000      -15.1480000000       5
   0.7460000000       -4.5260000000      -15.1480000000       5
   0.7460000000       -1.6410000000      -15.1480000000       5
   0.7460000000        1.2440000000      -15.1480000000       5
   0.7460000000        4.1290000000      -15.1480000000       5
  -1.7530000000       -5.9680000000      -15.1480000000       5
  -1.7530000000       -3.0830000000      -15.1480000000       5
  -1.7530000000       -0.1980000000      -15.1480000000       5
  -1.7530000000        2.6870000000      -15.1480000000       5
   3.2440000000       -5.9680000000      -12.5480000000       5
   3.2440000000       -3.0830000000      -12.5480000000       5
   3.2440000000       -0.1980000000      -12.5480000000       5
   3.2440000000        2.6870000000      -12.5480000000       5
   0.7460000000       -4.5260000000      -12.5480000000       5
   0.7460000000       -1.6410000000      -12.5480000000       5
   0.7460000000        1.2440000000      -12.5480000000       5
   0.7460000000        4.1290000000      -12.5480000000       5
  -1.7530000000       -5.9680000000      -12.5480000000       5
  -1.7530000000       -3.0830000000      -12.5480000000       5
  -1.7530000000       -0.1980000000      -12.5480000000       5
  -1.7530000000        2.6870000000      -12.5480000000       5
   3.2440000000       -5.9680000000       -9.9480000000       5
   3.2440000000       -3.0830000000       -9.9480000000       5
   3.2440000000       -0.1980000000       -9.9480000000       5
   3.2440000000        2.6870000000       -9.9480000000       5
   0.7460000000       -4.5260000000       -9.9480000000       5
   0.7460000000       -1.6410000000       -9.9480000000       5
   0.7460000000        1.2440000000       -9.9480000000       5
   0.7460000000        4.1290000000       -9.9480000000       5
  -1.7530000000       -5.9680000000       -9.9480000000       5
  -1.7530000000       -3.0830000000       -9.9480000000       5
  -1.7530000000       -0.1980000000       -9.9480000000       5
  -1.7530000000        2.6870000000       -9.9480000000       5
   1.5780000000       -0.1980000000       -7.5980000000       5
  -0.9270000000        1.2620000000       -7.6030000000       5
  -0.9310000000       -1.6500000000       -7.6030000000       5
  -0.0880000000       -0.1950000000       -5.2420000000       5
  -0.0880000000       -0.9950000000       -2.8420000000       4
   0.3167200000        1.8835600000       -2.1223500000       2
   0.1816700000        1.2794600000       -1.2098500000       1
  -0.0253300000       -0.1171200000       -1.3104500000       1
   0.3763500000        2.9861700000        0.1174000000       2
   0.2160300000        1.8985800000        0.0431300000       1
  -0.1955700000       -0.8777900000       -0.1272000000       1
  -0.3575900000       -1.9662700000       -0.1993100000       2
   0.0468100000        1.1436200000        1.2364000000       1
  -0.1592800000       -0.2588700000        1.1247300000       1
  -0.2927900000       -0.8550800000        2.0412500000       2
   0.0797700000        1.7841700000        2.5086900000       1
   0.1064200000        2.3499700000        3.6069300000       1
   0.3144700000        5.0038700000        3.8831500000       2
   0.1373400000        3.0526700000        4.8451900000       1
   0.2496400000        4.4772600000        4.8486200000       1
   0.2674900000        5.1919200000        6.0451500000       1
   0.3452800000        6.2906900000        6.0510800000       2
   0.0516000000        2.3756600000        6.0885300000       1
  -0.0477600000        1.2783800000        6.1539500000       2
   0.0869300000        3.0913800000        7.2935800000       1
   0.1937500000        4.5118000000        7.2889100000       1
   0.2745600000        6.5964700000        8.3762500000       3
   0.2102100000        5.2474100000        8.5464500000       1
  -0.0177900000        2.3423900000        8.5794800000       1
  -0.1529100000        1.1135000000        8.5975000000       3
  -0.5525600000        7.4564400000        9.0881700000       1
   1.0070000000        8.9491300000        9.0941100000       2
  -2.2585700000        6.1075200000        9.1750800000       2
  -0.0420800000        8.7387000000        9.3519200000       1
  -1.8771600000        7.1144200000        9.4096500000       1
   0.2158900000        4.6036800000        9.7901800000       1
   0.0697400000        3.1552300000        9.8306800000       1
  -0.8750600000        9.6944600000        9.9492700000       1
  -2.6967800000        8.0819800000       10.0158800000       1
  -0.4799900000       10.7012400000       10.1618100000       2
  -3.7390700000        7.8257600000       10.2664900000       2
  -2.2033600000        9.3702500000       10.2862900000       1
  -2.8544500000       10.1240300000       10.7566500000       2
  -0.0930800000        1.3681000000       10.9569200000       2
   0.0287000000        2.4652700000       11.0282500000       1
   0.4670900000        5.3384000000       11.0588300000       1
   0.7752500000        6.5426800000       11.1020400000       3
   0.1458600000        3.1359300000       12.3009100000       1
   0.3695800000        4.5473000000       12.3124500000       1
  -0.1022400000        1.3553900000       13.5464000000       2
   0.7027600000        6.3199900000       13.4681000000       2
   0.0663300000        2.4446200000       13.5349900000       1
   0.5173400000        5.2330900000       13.5356100000       1
   0.2014400000        3.1376600000       14.7616800000       1
   0.4323000000        4.5486400000       14.7471000000       1
   0.5413500000        5.0758100000       15.7081700000       2
   0.1163100000        2.4555900000       16.0116200000       1
   0.0491000000        1.9165700000       17.1207500000       1
  -0.5075400000       -0.6740100000       17.7024700000       2
  -0.3232300000       -0.0497700000       18.5914000000       1
  -0.0204500000        1.3276500000       18.4173000000       1
  -0.6272800000       -1.6852200000       19.9822700000       2
  -0.3898900000       -0.6142500000       19.8694700000       1
   0.2143200000        2.1183700000       19.5757000000       1
   0.4503300000        3.1872600000       19.4521100000       2
  -0.1553900000        0.1812800000       21.0158100000       1
   0.1489100000        1.5551500000       20.8524600000       1
   0.3338400000        2.1817100000       21.7410100000       2
  -0.2187400000       -0.4361500000       22.6703700000       4
  -0.5341600000       -1.7358200000       22.3503200000       2
 %endblock AtomicCoordinatesAndAtomicSpecies
 %block kgrid_Monkhorst_Pack
  1   0   0    0.0
  0   1   0    0.0
  0   0   1    0.0
 %endblock kgrid_Monkhorst_Pack
 xc.functional                       GGA #GGA, LDA,VDW
 xc.authors                          PBE #PBE, CA, DRSLL
 MeshCutoff                      250 Ry
 MaxSCFIterations               1000
 DM.MixingWeight                0.01
 DM.NumberPulay                    8
 DM.Tolerance                  1.d-4
 SolutionMethod                      diagon
 ElectronicTemperature           300 K
 MD.TypeOfRun                        cg
 MD.NumCGsteps                     0
 MD.MaxCGDispl                   0.1 Ang
 MD.MaxForceTol                 0.01 eV/Ang
 UseSaveData                         T
 DM.UseSaveDM                        T
 MD.UseSaveXV                        T
 MD.UseSaveCG                        T
 SaveHS                              F
 WriteEigenvalues                    T
 WriteMullikenPop                    1
 WriteCoorXmol                       T
 WriteMDXmol                         T
 WriteForces                         T
 AllocReportLevel                    2
 WriteMDhistory                      F
 WriteMDhistory                      F 